Maximize
	x1 + x2 + x3 + x4 + x5 + x6 + x7
Subject To
c0: x1 + x2 + x3 + x4 - 2 x5 + 3 x6 + 7 x7 = 57
c1: x1 - x2 - x3 - x4 + 8 x5 - 3 x6 + 3 x7 = -1
c2: x1 + x2 - x3 - x4 + 8 x5 + x6 + 7 x7 = 27
c3: x1 - x2 - x3 - x4 + 8 x5 - 3 x6 + 3 x7 = -1
c4: x1 + x2 + x3 - x4 + 8 x5 + 3 x6 + 7 x7 = 27
c5: x1 - x2 + x3 + x4 - 2 x5 - x6 + 3 x7 = 29
c6: x1 + x2 - x3 + x4 - 2 x5 + x6 + 7 x7 = 57
c7: x1 - x2 - x3 - x4 + 8 x5 - 3 x6 + 3 x7 = -1
